p tw 144 26641 2 
1 73 
1 75 
1 77 
1 79 
1 81 
1 83 
1 85 
1 87 
1 89 
1 91 
1 93 
1 95 
1 97 
1 99 
1 101 
1 103 
1 105 
1 107 
1 110 
1 111 
1 113 
1 115 
1 117 
1 119 
1 121 
1 123 
1 125 
1 127 
1 129 
1 131 
1 133 
1 135 
1 137 
1 139 
1 141 
1 143 
2 74 
2 76 
2 78 
2 80 
2 82 
2 84 
2 86 
2 88 
2 90 
2 92 
2 94 
2 96 
2 98 
2 100 
2 102 
2 104 
2 106 
2 108 
2 109 
2 112 
2 114 
2 116 
2 118 
2 120 
2 122 
2 124 
2 126 
2 128 
2 130 
2 132 
2 134 
2 136 
2 138 
2 140 
2 142 
2 144 
3 4 
3 73 
3 75 
3 77 
3 79 
3 82 
3 83 
3 86 
3 88 
3 90 
3 91 
3 93 
3 96 
3 98 
3 100 
3 101 
3 104 
3 105 
3 107 
3 109 
3 112 
3 113 
3 115 
3 118 
3 119 
3 122 
3 124 
3 126 
3 127 
3 129 
3 132 
3 134 
3 136 
3 137 
3 140 
3 141 
3 143 
4 74 
4 76 
4 78 
4 80 
4 81 
4 84 
4 85 
4 87 
4 89 
4 92 
4 94 
4 95 
4 97 
4 99 
4 102 
4 103 
4 106 
4 108 
4 110 
4 111 
4 114 
4 116 
4 117 
4 120 
4 121 
4 123 
4 125 
4 128 
4 130 
4 131 
4 133 
4 135 
4 138 
4 139 
4 142 
4 144 
5 6 
5 73 
5 75 
5 77 
5 79 
5 81 
5 84 
5 85 
5 88 
5 90 
5 92 
5 93 
5 95 
5 98 
5 100 
5 102 
5 103 
5 106 
5 107 
5 109 
5 111 
5 114 
5 115 
5 117 
5 120 
5 121 
5 124 
5 126 
5 128 
5 129 
5 131 
5 134 
5 136 
5 138 
5 139 
5 142 
5 143 
6 74 
6 76 
6 78 
6 80 
6 82 
6 83 
6 86 
6 87 
6 89 
6 91 
6 94 
6 96 
6 97 
6 99 
6 101 
6 104 
6 105 
6 108 
6 110 
6 112 
6 113 
6 116 
6 118 
6 119 
6 122 
6 123 
6 125 
6 127 
6 130 
6 132 
6 133 
6 135 
6 137 
6 140 
6 141 
6 144 
7 8 
7 73 
7 75 
7 77 
7 79 
7 81 
7 83 
7 86 
7 87 
7 90 
7 92 
7 94 
7 95 
7 97 
7 100 
7 102 
7 104 
7 105 
7 108 
7 109 
7 111 
7 113 
7 116 
7 117 
7 119 
7 122 
7 123 
7 126 
7 128 
7 130 
7 131 
7 133 
7 136 
7 138 
7 140 
7 141 
7 144 
8 74 
8 76 
8 78 
8 80 
8 82 
8 84 
8 85 
8 88 
8 89 
8 91 
8 93 
8 96 
8 98 
8 99 
8 101 
8 103 
8 106 
8 107 
8 110 
8 112 
8 114 
8 115 
8 118 
8 120 
8 121 
8 124 
8 125 
8 127 
8 129 
8 132 
8 134 
8 135 
8 137 
8 139 
8 142 
8 143 
9 10 
9 73 
9 76 
9 77 
9 79 
9 81 
9 83 
9 85 
9 88 
9 89 
9 92 
9 94 
9 96 
9 97 
9 99 
9 102 
9 104 
9 106 
9 107 
9 109 
9 112 
9 113 
9 115 
9 118 
9 119 
9 121 
9 124 
9 125 
9 128 
9 130 
9 132 
9 133 
9 135 
9 138 
9 140 
9 142 
9 143 
10 74 
10 75 
10 78 
10 80 
10 82 
10 84 
10 86 
10 87 
10 90 
10 91 
10 93 
10 95 
10 98 
10 100 
10 101 
10 103 
10 105 
10 108 
10 110 
10 111 
10 114 
10 116 
10 117 
10 120 
10 122 
10 123 
10 126 
10 127 
10 129 
10 131 
10 134 
10 136 
10 137 
10 139 
10 141 
10 144 
11 12 
11 73 
11 75 
11 78 
11 79 
11 81 
11 83 
11 85 
11 87 
11 90 
11 91 
11 94 
11 96 
11 98 
11 99 
11 101 
11 104 
11 106 
11 108 
11 109 
11 111 
11 114 
11 115 
11 117 
11 120 
11 121 
11 123 
11 126 
11 127 
11 130 
11 132 
11 134 
11 135 
11 137 
11 140 
11 142 
11 144 
12 74 
12 76 
12 77 
12 80 
12 82 
12 84 
12 86 
12 88 
12 89 
12 92 
12 93 
12 95 
12 97 
12 100 
12 102 
12 103 
12 105 
12 107 
12 110 
12 112 
12 113 
12 116 
12 118 
12 119 
12 122 
12 124 
12 125 
12 128 
12 129 
12 131 
12 133 
12 136 
12 138 
12 139 
12 141 
12 143 
13 14 
13 73 
13 76 
13 77 
13 80 
13 81 
13 83 
13 85 
13 87 
13 89 
13 92 
13 93 
13 96 
13 98 
13 100 
13 101 
13 103 
13 106 
13 108 
13 109 
13 112 
13 113 
13 116 
13 117 
13 119 
13 122 
13 123 
13 125 
13 128 
13 129 
13 132 
13 134 
13 136 
13 137 
13 139 
13 142 
13 144 
14 74 
14 75 
14 78 
14 79 
14 82 
14 84 
14 86 
14 88 
14 90 
14 91 
14 94 
14 95 
14 97 
14 99 
14 102 
14 104 
14 105 
14 107 
14 110 
14 111 
14 114 
14 115 
14 118 
14 120 
14 121 
14 124 
14 126 
14 127 
14 130 
14 131 
14 133 
14 135 
14 138 
14 140 
14 141 
14 143 
15 16 
15 73 
15 76 
15 78 
15 79 
15 82 
15 83 
15 85 
15 87 
15 89 
15 91 
15 94 
15 95 
15 98 
15 100 
15 102 
15 103 
15 105 
15 108 
15 109 
15 112 
15 114 
15 115 
15 118 
15 119 
15 121 
15 124 
15 125 
15 127 
15 130 
15 131 
15 134 
15 136 
15 138 
15 139 
15 141 
15 144 
16 74 
16 75 
16 77 
16 80 
16 81 
16 84 
16 86 
16 88 
16 90 
16 92 
16 93 
16 96 
16 97 
16 99 
16 101 
16 104 
16 106 
16 107 
16 110 
16 111 
16 113 
16 116 
16 117 
16 120 
16 122 
16 123 
16 126 
16 128 
16 129 
16 132 
16 133 
16 135 
16 137 
16 140 
16 142 
16 143 
17 18 
17 73 
17 76 
17 78 
17 80 
17 81 
17 84 
17 85 
17 87 
17 89 
17 91 
17 93 
17 96 
17 97 
17 100 
17 102 
17 104 
17 105 
17 107 
17 109 
17 112 
17 114 
17 116 
17 117 
17 120 
17 121 
17 123 
17 126 
17 127 
17 129 
17 132 
17 133 
17 136 
17 138 
17 140 
17 141 
17 143 
18 74 
18 75 
18 77 
18 79 
18 82 
18 83 
18 86 
18 88 
18 90 
18 92 
18 94 
18 95 
18 98 
18 99 
18 101 
18 103 
18 106 
18 108 
18 110 
18 111 
18 113 
18 115 
18 118 
18 119 
18 122 
18 124 
18 125 
18 128 
18 130 
18 131 
18 134 
18 135 
18 137 
18 139 
18 142 
18 144 
19 20 
19 73 
19 75 
19 78 
19 80 
19 82 
19 83 
19 86 
19 87 
19 89 
19 91 
19 93 
19 95 
19 98 
19 99 
19 102 
19 104 
19 106 
19 107 
19 109 
19 111 
19 114 
19 116 
19 118 
19 119 
19 122 
19 123 
19 125 
19 128 
19 129 
19 131 
19 134 
19 135 
19 138 
19 140 
19 142 
19 143 
20 74 
20 76 
20 77 
20 79 
20 81 
20 84 
20 85 
20 88 
20 90 
20 92 
20 94 
20 96 
20 97 
20 100 
20 101 
20 103 
20 105 
20 108 
20 110 
20 112 
20 113 
20 115 
20 117 
20 120 
20 121 
20 124 
20 126 
20 127 
20 130 
20 132 
20 133 
20 136 
20 137 
20 139 
20 141 
20 144 
21 22 
21 73 
21 75 
21 77 
21 80 
21 82 
21 84 
21 85 
21 88 
21 89 
21 91 
21 93 
21 95 
21 97 
21 100 
21 101 
21 104 
21 106 
21 108 
21 109 
21 111 
21 113 
21 116 
21 118 
21 120 
21 121 
21 124 
21 125 
21 127 
21 130 
21 131 
21 133 
21 136 
21 137 
21 140 
21 142 
21 144 
22 74 
22 76 
22 78 
22 79 
22 81 
22 83 
22 86 
22 87 
22 90 
22 92 
22 94 
22 96 
22 98 
22 99 
22 102 
22 103 
22 105 
22 107 
22 110 
22 112 
22 114 
22 115 
22 117 
22 119 
22 122 
22 123 
22 126 
22 128 
22 129 
22 132 
22 134 
22 135 
22 138 
22 139 
22 141 
22 143 
23 24 
23 73 
23 76 
23 77 
23 79 
23 82 
23 84 
23 86 
23 87 
23 90 
23 91 
23 93 
23 95 
23 97 
23 99 
23 102 
23 103 
23 106 
23 108 
23 109 
23 112 
23 113 
23 115 
23 118 
23 120 
23 122 
23 123 
23 126 
23 127 
23 129 
23 132 
23 133 
23 135 
23 138 
23 139 
23 142 
23 144 
24 74 
24 75 
24 78 
24 80 
24 81 
24 83 
24 85 
24 88 
24 89 
24 92 
24 94 
24 96 
24 98 
24 100 
24 101 
24 104 
24 105 
24 107 
24 110 
24 111 
24 114 
24 116 
24 117 
24 119 
24 121 
24 124 
24 125 
24 128 
24 130 
24 131 
24 134 
24 136 
24 137 
24 140 
24 141 
24 143 
25 26 
25 73 
25 76 
25 78 
25 79 
25 81 
25 84 
25 86 
25 88 
25 89 
25 92 
25 93 
25 95 
25 97 
25 99 
25 101 
25 104 
25 105 
25 108 
25 109 
25 112 
25 114 
25 115 
25 117 
25 120 
25 122 
25 124 
25 125 
25 128 
25 129 
25 131 
25 134 
25 135 
25 137 
25 140 
25 141 
25 144 
26 74 
26 75 
26 77 
26 80 
26 82 
26 83 
26 85 
26 87 
26 90 
26 91 
26 94 
26 96 
26 98 
26 100 
26 102 
26 103 
26 106 
26 107 
26 110 
26 111 
26 113 
26 116 
26 118 
26 119 
26 121 
26 123 
26 126 
26 127 
26 130 
26 132 
26 133 
26 136 
26 138 
26 139 
26 142 
26 143 
27 28 
27 73 
27 76 
27 78 
27 80 
27 81 
27 83 
27 86 
27 88 
27 90 
27 91 
27 94 
27 95 
27 97 
27 99 
27 101 
27 103 
27 106 
27 107 
27 109 
27 112 
27 114 
27 116 
27 117 
27 119 
27 122 
27 124 
27 126 
27 127 
27 130 
27 131 
27 133 
27 136 
27 137 
27 139 
27 142 
27 143 
28 74 
28 75 
28 77 
28 79 
28 82 
28 84 
28 85 
28 87 
28 89 
28 92 
28 93 
28 96 
28 98 
28 100 
28 102 
28 104 
28 105 
28 108 
28 110 
28 111 
28 113 
28 115 
28 118 
28 120 
28 121 
28 123 
28 125 
28 128 
28 129 
28 132 
28 134 
28 135 
28 138 
28 140 
28 141 
28 144 
29 30 
29 73 
29 75 
29 78 
29 80 
29 82 
29 83 
29 85 
29 88 
29 90 
29 92 
29 93 
29 96 
29 97 
29 99 
29 101 
29 103 
29 105 
29 108 
29 109 
29 111 
29 114 
29 116 
29 118 
29 119 
29 121 
29 124 
29 126 
29 128 
29 129 
29 132 
29 133 
29 135 
29 138 
29 139 
29 141 
29 144 
30 74 
30 76 
30 77 
30 79 
30 81 
30 84 
30 86 
30 87 
30 89 
30 91 
30 94 
30 95 
30 98 
30 100 
30 102 
30 104 
30 106 
30 107 
30 110 
30 112 
30 113 
30 115 
30 117 
30 120 
30 122 
30 123 
30 125 
30 127 
30 130 
30 131 
30 134 
30 136 
30 137 
30 140 
30 142 
30 143 
31 32 
31 73 
31 76 
31 77 
31 80 
31 82 
31 84 
31 85 
31 87 
31 90 
31 92 
31 94 
31 95 
31 98 
31 99 
31 101 
31 103 
31 105 
31 107 
31 109 
31 112 
31 113 
31 116 
31 118 
31 120 
31 121 
31 123 
31 126 
31 128 
31 130 
31 131 
31 134 
31 135 
31 137 
31 140 
31 141 
31 143 
32 74 
32 75 
32 78 
32 79 
32 81 
32 83 
32 86 
32 88 
32 89 
32 91 
32 93 
32 96 
32 97 
32 100 
32 102 
32 104 
32 106 
32 108 
32 110 
32 111 
32 114 
32 115 
32 117 
32 119 
32 122 
32 124 
32 125 
32 127 
32 129 
32 132 
32 133 
32 136 
32 138 
32 139 
32 142 
32 144 
33 34 
33 73 
33 75 
33 78 
33 79 
33 82 
33 84 
33 86 
33 87 
33 89 
33 92 
33 94 
33 96 
33 97 
33 100 
33 101 
33 103 
33 105 
33 107 
33 109 
33 111 
33 114 
33 115 
33 118 
33 120 
33 122 
33 123 
33 125 
33 128 
33 130 
33 132 
33 133 
33 136 
33 137 
33 139 
33 142 
33 143 
34 74 
34 76 
34 77 
34 80 
34 81 
34 83 
34 85 
34 88 
34 90 
34 91 
34 93 
34 95 
34 98 
34 99 
34 102 
34 104 
34 106 
34 108 
34 110 
34 112 
34 113 
34 116 
34 117 
34 119 
34 121 
34 124 
34 126 
34 127 
34 129 
34 131 
34 134 
34 135 
34 138 
34 140 
34 141 
34 144 
35 36 
35 73 
35 75 
35 77 
35 80 
35 81 
35 84 
35 86 
35 88 
35 89 
35 91 
35 94 
35 96 
35 98 
35 99 
35 102 
35 103 
35 105 
35 107 
35 109 
35 111 
35 113 
35 116 
35 117 
35 120 
35 122 
35 124 
35 125 
35 127 
35 130 
35 132 
35 134 
35 135 
35 138 
35 139 
35 141 
35 144 
36 74 
36 76 
36 78 
36 79 
36 82 
36 83 
36 85 
36 87 
36 90 
36 92 
36 93 
36 95 
36 97 
36 100 
36 101 
36 104 
36 106 
36 108 
36 110 
36 112 
36 114 
36 115 
36 118 
36 119 
36 121 
36 123 
36 126 
36 128 
36 129 
36 131 
36 133 
36 136 
36 137 
36 140 
36 142 
36 143 
37 38 
37 74 
37 75 
37 77 
37 79 
37 81 
37 83 
37 85 
37 87 
37 89 
37 91 
37 93 
37 95 
37 97 
37 99 
37 101 
37 103 
37 105 
37 107 
37 110 
37 112 
37 114 
37 116 
37 118 
37 120 
37 122 
37 124 
37 126 
37 128 
37 130 
37 132 
37 134 
37 136 
37 138 
37 140 
37 142 
37 144 
38 73 
38 76 
38 78 
38 80 
38 82 
38 84 
38 86 
38 88 
38 90 
38 92 
38 94 
38 96 
38 98 
38 100 
38 102 
38 104 
38 106 
38 108 
38 109 
38 111 
38 113 
38 115 
38 117 
38 119 
38 121 
38 123 
38 125 
38 127 
38 129 
38 131 
38 133 
38 135 
38 137 
38 139 
38 141 
38 143 
39 40 
39 73 
39 76 
39 77 
39 79 
39 82 
39 83 
39 86 
39 88 
39 90 
39 91 
39 93 
39 96 
39 98 
39 100 
39 101 
39 104 
39 105 
39 107 
39 110 
39 112 
39 114 
39 116 
39 117 
39 120 
39 121 
39 123 
39 125 
39 128 
39 130 
39 131 
39 133 
39 135 
39 138 
39 139 
39 142 
39 144 
40 74 
40 75 
40 78 
40 80 
40 81 
40 84 
40 85 
40 87 
40 89 
40 92 
40 94 
40 95 
40 97 
40 99 
40 102 
40 103 
40 106 
40 108 
40 109 
40 111 
40 113 
40 115 
40 118 
40 119 
40 122 
40 124 
40 126 
40 127 
40 129 
40 132 
40 134 
40 136 
40 137 
40 140 
40 141 
40 143 
41 42 
41 73 
41 75 
41 78 
41 79 
41 81 
41 84 
41 85 
41 88 
41 90 
41 92 
41 93 
41 95 
41 98 
41 100 
41 102 
41 103 
41 106 
41 107 
41 110 
41 112 
41 114 
41 116 
41 118 
41 119 
41 122 
41 123 
41 125 
41 127 
41 130 
41 132 
41 133 
41 135 
41 137 
41 140 
41 141 
41 144 
42 74 
42 76 
42 77 
42 80 
42 82 
42 83 
42 86 
42 87 
42 89 
42 91 
42 94 
42 96 
42 97 
42 99 
42 101 
42 104 
42 105 
42 108 
42 109 
42 111 
42 113 
42 115 
42 117 
42 120 
42 121 
42 124 
42 126 
42 128 
42 129 
42 131 
42 134 
42 136 
42 138 
42 139 
42 142 
42 143 
43 44 
43 73 
43 75 
43 77 
43 80 
43 81 
43 83 
43 86 
43 87 
43 90 
43 92 
43 94 
43 95 
43 97 
43 100 
43 102 
43 104 
43 105 
43 108 
43 110 
43 112 
43 114 
43 116 
43 118 
43 120 
43 121 
43 124 
43 125 
43 127 
43 129 
43 132 
43 134 
43 135 
43 137 
43 139 
43 142 
43 143 
44 74 
44 76 
44 78 
44 79 
44 82 
44 84 
44 85 
44 88 
44 89 
44 91 
44 93 
44 96 
44 98 
44 99 
44 101 
44 103 
44 106 
44 107 
44 109 
44 111 
44 113 
44 115 
44 117 
44 119 
44 122 
44 123 
44 126 
44 128 
44 130 
44 131 
44 133 
44 136 
44 138 
44 140 
44 141 
44 144 
45 46 
45 73 
45 76 
45 77 
45 79 
45 82 
45 83 
45 85 
45 88 
45 89 
45 92 
45 94 
45 96 
45 97 
45 99 
45 102 
45 104 
45 106 
45 107 
45 110 
45 111 
45 114 
45 116 
45 118 
45 120 
45 122 
45 123 
45 126 
45 127 
45 129 
45 131 
45 134 
45 136 
45 137 
45 139 
45 141 
45 144 
46 74 
46 75 
46 78 
46 80 
46 81 
46 84 
46 86 
46 87 
46 90 
46 91 
46 93 
46 95 
46 98 
46 100 
46 101 
46 103 
46 105 
46 108 
46 109 
46 112 
46 113 
46 115 
46 117 
46 119 
46 121 
46 124 
46 125 
46 128 
46 130 
46 132 
46 133 
46 135 
46 138 
46 140 
46 142 
46 143 
47 48 
47 73 
47 75 
47 78 
47 79 
47 81 
47 84 
47 85 
47 87 
47 90 
47 91 
47 94 
47 96 
47 98 
47 99 
47 101 
47 104 
47 106 
47 108 
47 110 
47 112 
47 113 
47 116 
47 118 
47 120 
47 122 
47 124 
47 125 
47 128 
47 129 
47 131 
47 133 
47 136 
47 138 
47 139 
47 141 
47 143 
48 74 
48 76 
48 77 
48 80 
48 82 
48 83 
48 86 
48 88 
48 89 
48 92 
48 93 
48 95 
48 97 
48 100 
48 102 
48 103 
48 105 
48 107 
48 109 
48 111 
48 114 
48 115 
48 117 
48 119 
48 121 
48 123 
48 126 
48 127 
48 130 
48 132 
48 134 
48 135 
48 137 
48 140 
48 142 
48 144 
49 50 
49 73 
49 76 
49 77 
49 80 
49 81 
49 83 
49 86 
49 87 
49 89 
49 92 
49 93 
49 96 
49 98 
49 100 
49 101 
49 103 
49 106 
49 108 
49 110 
49 111 
49 114 
49 115 
49 118 
49 120 
49 122 
49 124 
49 126 
49 127 
49 130 
49 131 
49 133 
49 135 
49 138 
49 140 
49 141 
49 143 
50 74 
50 75 
50 78 
50 79 
50 82 
50 84 
50 85 
50 88 
50 90 
50 91 
50 94 
50 95 
50 97 
50 99 
50 102 
50 104 
50 105 
50 107 
50 109 
50 112 
50 113 
50 116 
50 117 
50 119 
50 121 
50 123 
50 125 
50 128 
50 129 
50 132 
50 134 
50 136 
50 137 
50 139 
50 142 
50 144 
51 52 
51 73 
51 76 
51 78 
51 79 
51 82 
51 83 
51 85 
51 88 
51 89 
51 91 
51 94 
51 95 
51 98 
51 100 
51 102 
51 103 
51 105 
51 108 
51 110 
51 111 
51 113 
51 116 
51 117 
51 120 
51 122 
51 124 
51 126 
51 128 
51 129 
51 132 
51 133 
51 135 
51 137 
51 140 
51 142 
51 143 
52 74 
52 75 
52 77 
52 80 
52 81 
52 84 
52 86 
52 87 
52 90 
52 92 
52 93 
52 96 
52 97 
52 99 
52 101 
52 104 
52 106 
52 107 
52 109 
52 112 
52 114 
52 115 
52 118 
52 119 
52 121 
52 123 
52 125 
52 127 
52 130 
52 131 
52 134 
52 136 
52 138 
52 139 
52 141 
52 144 
53 54 
53 73 
53 76 
53 78 
53 80 
53 81 
53 84 
53 85 
53 87 
53 90 
53 91 
53 93 
53 96 
53 97 
53 100 
53 102 
53 104 
53 105 
53 107 
53 110 
53 111 
53 113 
53 115 
53 118 
53 119 
53 122 
53 124 
53 126 
53 128 
53 130 
53 131 
53 134 
53 135 
53 137 
53 139 
53 142 
53 144 
54 74 
54 75 
54 77 
54 79 
54 82 
54 83 
54 86 
54 88 
54 89 
54 92 
54 94 
54 95 
54 98 
54 99 
54 101 
54 103 
54 106 
54 108 
54 109 
54 112 
54 114 
54 116 
54 117 
54 120 
54 121 
54 123 
54 125 
54 127 
54 129 
54 132 
54 133 
54 136 
54 138 
54 140 
54 141 
54 143 
55 56 
55 73 
55 75 
55 78 
55 80 
55 82 
55 83 
55 86 
55 87 
55 89 
55 92 
55 93 
55 95 
55 98 
55 99 
55 102 
55 104 
55 106 
55 107 
55 110 
55 112 
55 113 
55 115 
55 117 
55 120 
55 121 
55 124 
55 126 
55 128 
55 130 
55 132 
55 133 
55 136 
55 137 
55 139 
55 141 
55 144 
56 74 
56 76 
56 77 
56 79 
56 81 
56 84 
56 85 
56 88 
56 90 
56 91 
56 94 
56 96 
56 97 
56 100 
56 101 
56 103 
56 105 
56 108 
56 109 
56 111 
56 114 
56 116 
56 118 
56 119 
56 122 
56 123 
56 125 
56 127 
56 129 
56 131 
56 134 
56 135 
56 138 
56 140 
56 142 
56 143 
57 58 
57 73 
57 75 
57 77 
57 80 
57 82 
57 84 
57 85 
57 88 
57 89 
57 91 
57 94 
57 95 
57 97 
57 100 
57 101 
57 104 
57 106 
57 108 
57 110 
57 112 
57 114 
57 115 
57 117 
57 119 
57 122 
57 123 
57 126 
57 128 
57 130 
57 132 
57 134 
57 135 
57 138 
57 139 
57 141 
57 143 
58 74 
58 76 
58 78 
58 79 
58 81 
58 83 
58 86 
58 87 
58 90 
58 92 
58 93 
58 96 
58 98 
58 99 
58 102 
58 103 
58 105 
58 107 
58 109 
58 111 
58 113 
58 116 
58 118 
58 120 
58 121 
58 124 
58 125 
58 127 
58 129 
58 131 
58 133 
58 136 
58 137 
58 140 
58 142 
58 144 
59 60 
59 73 
59 76 
59 77 
59 79 
59 82 
59 84 
59 86 
59 87 
59 90 
59 91 
59 93 
59 96 
59 97 
59 99 
59 102 
59 103 
59 106 
59 108 
59 110 
59 111 
59 114 
59 116 
59 117 
59 119 
59 121 
59 124 
59 125 
59 128 
59 130 
59 132 
59 134 
59 136 
59 137 
59 140 
59 141 
59 143 
60 74 
60 75 
60 78 
60 80 
60 81 
60 83 
60 85 
60 88 
60 89 
60 92 
60 94 
60 95 
60 98 
60 100 
60 101 
60 104 
60 105 
60 107 
60 109 
60 112 
60 113 
60 115 
60 118 
60 120 
60 122 
60 123 
60 126 
60 127 
60 129 
60 131 
60 133 
60 135 
60 138 
60 139 
60 142 
60 144 
61 62 
61 73 
61 76 
61 78 
61 79 
61 81 
61 84 
61 86 
61 88 
61 89 
61 92 
61 93 
61 95 
61 98 
61 99 
61 101 
61 104 
61 105 
61 108 
61 110 
61 111 
61 113 
61 116 
61 118 
61 119 
61 121 
61 123 
61 126 
61 127 
61 130 
61 132 
61 134 
61 136 
61 138 
61 139 
61 142 
61 143 
62 74 
62 75 
62 77 
62 80 
62 82 
62 83 
62 85 
62 87 
62 90 
62 91 
62 94 
62 96 
62 97 
62 100 
62 102 
62 103 
62 106 
62 107 
62 109 
62 112 
62 114 
62 115 
62 117 
62 120 
62 122 
62 124 
62 125 
62 128 
62 129 
62 131 
62 133 
62 135 
62 137 
62 140 
62 141 
62 144 
63 64 
63 73 
63 76 
63 78 
63 80 
63 81 
63 83 
63 86 
63 88 
63 90 
63 91 
63 94 
63 95 
63 97 
63 100 
63 101 
63 103 
63 106 
63 107 
63 110 
63 111 
63 113 
63 115 
63 118 
63 120 
63 121 
63 123 
63 125 
63 128 
63 129 
63 132 
63 134 
63 136 
63 138 
63 140 
63 141 
63 144 
64 74 
64 75 
64 77 
64 79 
64 82 
64 84 
64 85 
64 87 
64 89 
64 92 
64 93 
64 96 
64 98 
64 99 
64 102 
64 104 
64 105 
64 108 
64 109 
64 112 
64 114 
64 116 
64 117 
64 119 
64 122 
64 124 
64 126 
64 127 
64 130 
64 131 
64 133 
64 135 
64 137 
64 139 
64 142 
64 143 
65 66 
65 73 
65 75 
65 78 
65 80 
65 82 
65 83 
65 85 
65 88 
65 90 
65 92 
65 93 
65 96 
65 97 
65 99 
65 102 
65 103 
65 105 
65 108 
65 110 
65 112 
65 113 
65 115 
65 117 
65 120 
65 122 
65 123 
65 125 
65 127 
65 130 
65 131 
65 134 
65 136 
65 138 
65 140 
65 142 
65 143 
66 74 
66 76 
66 77 
66 79 
66 81 
66 84 
66 86 
66 87 
66 89 
66 91 
66 94 
66 95 
66 98 
66 100 
66 101 
66 104 
66 106 
66 107 
66 109 
66 111 
66 114 
66 116 
66 118 
66 119 
66 121 
66 124 
66 126 
66 128 
66 129 
66 132 
66 133 
66 135 
66 137 
66 139 
66 141 
66 144 
67 68 
67 73 
67 76 
67 77 
67 80 
67 82 
67 84 
67 85 
67 87 
67 90 
67 92 
67 94 
67 95 
67 98 
67 99 
67 101 
67 104 
67 105 
67 107 
67 110 
67 111 
67 114 
67 115 
67 117 
67 119 
67 122 
67 124 
67 125 
67 127 
67 129 
67 132 
67 133 
67 136 
67 138 
67 140 
67 142 
67 144 
68 74 
68 75 
68 78 
68 79 
68 81 
68 83 
68 86 
68 88 
68 89 
68 91 
68 93 
68 96 
68 97 
68 100 
68 102 
68 103 
68 106 
68 108 
68 109 
68 112 
68 113 
68 116 
68 118 
68 120 
68 121 
68 123 
68 126 
68 128 
68 130 
68 131 
68 134 
68 135 
68 137 
68 139 
68 141 
68 143 
69 70 
69 73 
69 75 
69 78 
69 79 
69 82 
69 84 
69 86 
69 87 
69 89 
69 92 
69 94 
69 96 
69 97 
69 100 
69 101 
69 103 
69 106 
69 107 
69 110 
69 112 
69 113 
69 116 
69 117 
69 119 
69 121 
69 124 
69 126 
69 127 
69 129 
69 131 
69 134 
69 135 
69 138 
69 140 
69 142 
69 144 
70 74 
70 76 
70 77 
70 80 
70 81 
70 83 
70 85 
70 88 
70 90 
70 91 
70 93 
70 95 
70 98 
70 99 
70 102 
70 104 
70 105 
70 108 
70 109 
70 111 
70 114 
70 115 
70 118 
70 120 
70 122 
70 123 
70 125 
70 128 
70 130 
70 132 
70 133 
70 136 
70 137 
70 139 
70 141 
70 143 
71 72 
71 73 
71 75 
71 77 
71 80 
71 81 
71 84 
71 86 
71 88 
71 89 
71 91 
71 94 
71 96 
71 98 
71 99 
71 102 
71 103 
71 105 
71 108 
71 110 
71 112 
71 114 
71 115 
71 118 
71 119 
71 121 
71 123 
71 126 
71 128 
71 129 
71 131 
71 133 
71 136 
71 137 
71 140 
71 142 
71 144 
72 74 
72 76 
72 78 
72 79 
72 82 
72 83 
72 85 
72 87 
72 90 
72 92 
72 93 
72 95 
72 97 
72 100 
72 101 
72 104 
72 106 
72 107 
72 109 
72 111 
72 113 
72 116 
72 117 
72 120 
72 122 
72 124 
72 125 
72 127 
72 130 
72 132 
72 134 
72 135 
72 138 
72 139 
72 141 
72 143 
73 74 
75 76 
77 78 
79 80 
81 82 
83 84 
85 86 
87 88 
89 90 
91 92 
93 94 
95 96 
97 98 
99 100 
101 102 
103 104 
105 106 
107 108 
109 110 
111 112 
113 114 
115 116 
117 118 
119 120 
121 122 
123 124 
125 126 
127 128 
129 130 
131 132 
133 134 
135 136 
137 138 
139 140 
141 142 
143 144 
